c CNF file corresponding to a (partial) station packing problem.
p cnf 5969 229
1 2 3 4 5 6 7 8 9 10 11 12 13 14 0
-1 -2 0
-1 -3 0
-1 -4 0
-1 -5 0
-1 -6 0
-1 -7 0
-1 -8 0
-1 -9 0
-1 -10 0
-1 -11 0
-1 -12 0
-1 -13 0
-1 -14 0
-2 -3 0
-2 -4 0
-2 -5 0
-2 -6 0
-2 -7 0
-2 -8 0
-2 -9 0
-2 -10 0
-2 -11 0
-2 -12 0
-2 -13 0
-2 -14 0
-3 -4 0
-3 -5 0
-3 -6 0
-3 -7 0
-3 -8 0
-3 -9 0
-3 -10 0
-3 -11 0
-3 -12 0
-3 -13 0
-3 -14 0
-4 -5 0
-4 -6 0
-4 -7 0
-4 -8 0
-4 -9 0
-4 -10 0
-4 -11 0
-4 -12 0
-4 -13 0
-4 -14 0
-5 -6 0
-5 -7 0
-5 -8 0
-5 -9 0
-5 -10 0
-5 -11 0
-5 -12 0
-5 -13 0
-5 -14 0
-6 -7 0
-6 -8 0
-6 -9 0
-6 -10 0
-6 -11 0
-6 -12 0
-6 -13 0
-6 -14 0
-7 -8 0
-7 -9 0
-7 -10 0
-7 -11 0
-7 -12 0
-7 -13 0
-7 -14 0
-8 -9 0
-8 -10 0
-8 -11 0
-8 -12 0
-8 -13 0
-8 -14 0
-9 -10 0
-9 -11 0
-9 -12 0
-9 -13 0
-9 -14 0
-10 -11 0
-10 -12 0
-10 -13 0
-10 -14 0
-11 -12 0
-11 -13 0
-11 -14 0
-12 -13 0
-12 -14 0
-13 -14 0
5953 5954 5955 5956 5957 5958 5959 5960 5961 5962 5963 5964 5965 5966 5967 5968 5969 0
-5953 -5954 0
-5953 -5955 0
-5953 -5956 0
-5953 -5957 0
-5953 -5958 0
-5953 -5959 0
-5953 -5960 0
-5953 -5961 0
-5953 -5962 0
-5953 -5963 0
-5953 -5964 0
-5953 -5965 0
-5953 -5966 0
-5953 -5967 0
-5953 -5968 0
-5953 -5969 0
-5954 -5955 0
-5954 -5956 0
-5954 -5957 0
-5954 -5958 0
-5954 -5959 0
-5954 -5960 0
-5954 -5961 0
-5954 -5962 0
-5954 -5963 0
-5954 -5964 0
-5954 -5965 0
-5954 -5966 0
-5954 -5967 0
-5954 -5968 0
-5954 -5969 0
-5955 -5956 0
-5955 -5957 0
-5955 -5958 0
-5955 -5959 0
-5955 -5960 0
-5955 -5961 0
-5955 -5962 0
-5955 -5963 0
-5955 -5964 0
-5955 -5965 0
-5955 -5966 0
-5955 -5967 0
-5955 -5968 0
-5955 -5969 0
-5956 -5957 0
-5956 -5958 0
-5956 -5959 0
-5956 -5960 0
-5956 -5961 0
-5956 -5962 0
-5956 -5963 0
-5956 -5964 0
-5956 -5965 0
-5956 -5966 0
-5956 -5967 0
-5956 -5968 0
-5956 -5969 0
-5957 -5958 0
-5957 -5959 0
-5957 -5960 0
-5957 -5961 0
-5957 -5962 0
-5957 -5963 0
-5957 -5964 0
-5957 -5965 0
-5957 -5966 0
-5957 -5967 0
-5957 -5968 0
-5957 -5969 0
-5958 -5959 0
-5958 -5960 0
-5958 -5961 0
-5958 -5962 0
-5958 -5963 0
-5958 -5964 0
-5958 -5965 0
-5958 -5966 0
-5958 -5967 0
-5958 -5968 0
-5958 -5969 0
-5959 -5960 0
-5959 -5961 0
-5959 -5962 0
-5959 -5963 0
-5959 -5964 0
-5959 -5965 0
-5959 -5966 0
-5959 -5967 0
-5959 -5968 0
-5959 -5969 0
-5960 -5961 0
-5960 -5962 0
-5960 -5963 0
-5960 -5964 0
-5960 -5965 0
-5960 -5966 0
-5960 -5967 0
-5960 -5968 0
-5960 -5969 0
-5961 -5962 0
-5961 -5963 0
-5961 -5964 0
-5961 -5965 0
-5961 -5966 0
-5961 -5967 0
-5961 -5968 0
-5961 -5969 0
-5962 -5963 0
-5962 -5964 0
-5962 -5965 0
-5962 -5966 0
-5962 -5967 0
-5962 -5968 0
-5962 -5969 0
-5963 -5964 0
-5963 -5965 0
-5963 -5966 0
-5963 -5967 0
-5963 -5968 0
-5963 -5969 0
-5964 -5965 0
-5964 -5966 0
-5964 -5967 0
-5964 -5968 0
-5964 -5969 0
-5965 -5966 0
-5965 -5967 0
-5965 -5968 0
-5965 -5969 0
-5966 -5967 0
-5966 -5968 0
-5966 -5969 0
-5967 -5968 0
-5967 -5969 0
-5968 -5969 0
